c strEdges: 189  randomEdges: 441 
c degrees:  2  3 
c girth: 10 max: 8.032766  
c Hgirth mixed MAXCUT instance
c generated from an undirected graph
c to solve unweighted MaxCut
p cnf 140 1260
58 8 0
-58 -8 0
58 105 0
-58 -105 0
123 112 0
-123 -112 0
123 13 0
-123 -13 0
24 38 0
-24 -38 0
24 31 0
-24 -31 0
125 86 0
-125 -86 0
125 30 0
-125 -30 0
6 74 0
-6 -74 0
6 71 0
-6 -71 0
6 115 0
-6 -115 0
69 80 0
-69 -80 0
69 81 0
-69 -81 0
69 104 0
-69 -104 0
95 27 0
-95 -27 0
95 1 0
-95 -1 0
95 94 0
-95 -94 0
47 88 0
-47 -88 0
47 117 0
-47 -117 0
53 31 0
-53 -31 0
53 39 0
-53 -39 0
53 117 0
-53 -117 0
120 109 0
-120 -109 0
120 112 0
-120 -112 0
63 21 0
-63 -21 0
63 94 0
-63 -94 0
63 25 0
-63 -25 0
40 100 0
-40 -100 0
40 126 0
-40 -126 0
40 132 0
-40 -132 0
16 56 0
-16 -56 0
16 86 0
-16 -86 0
16 11 0
-16 -11 0
14 131 0
-14 -131 0
14 46 0
-14 -46 0
128 46 0
-128 -46 0
128 79 0
-128 -79 0
116 140 0
-116 -140 0
116 109 0
-116 -109 0
116 27 0
-116 -27 0
113 117 0
-113 -117 0
113 4 0
-113 -4 0
113 112 0
-113 -112 0
9 11 0
-9 -11 0
9 65 0
-9 -65 0
93 104 0
-93 -104 0
93 100 0
-93 -100 0
93 43 0
-93 -43 0
103 97 0
-103 -97 0
103 17 0
-103 -17 0
135 34 0
-135 -34 0
135 49 0
-135 -49 0
135 88 0
-135 -88 0
77 121 0
-77 -121 0
77 57 0
-77 -57 0
77 11 0
-77 -11 0
64 22 0
-64 -22 0
64 8 0
-64 -8 0
64 13 0
-64 -13 0
114 65 0
-114 -65 0
114 81 0
-114 -81 0
114 109 0
-114 -109 0
133 67 0
-133 -67 0
133 23 0
-133 -23 0
28 79 0
-28 -79 0
28 37 0
-28 -37 0
50 94 0
-50 -94 0
50 8 0
-50 -8 0
50 91 0
-50 -91 0
32 23 0
-32 -23 0
32 68 0
-32 -68 0
32 121 0
-32 -121 0
60 124 0
-60 -124 0
60 88 0
-60 -88 0
137 30 0
-137 -30 0
137 111 0
-137 -111 0
137 2 0
-137 -2 0
106 110 0
-106 -110 0
106 124 0
-106 -124 0
26 51 0
-26 -51 0
26 79 0
-26 -79 0
26 68 0
-26 -68 0
84 111 0
-84 -111 0
84 22 0
-84 -22 0
84 122 0
-84 -122 0
102 57 0
-102 -57 0
102 130 0
-102 -130 0
102 127 0
-102 -127 0
66 68 0
-66 -68 0
66 96 0
-66 -96 0
12 49 0
-12 -49 0
12 83 0
-12 -83 0
12 101 0
-12 -101 0
107 130 0
-107 -130 0
107 43 0
-107 -43 0
108 96 0
-108 -96 0
108 126 0
-108 -126 0
108 101 0
-108 -101 0
15 136 0
-15 -136 0
15 31 0
-15 -31 0
15 122 0
-15 -122 0
19 4 0
-19 -4 0
19 138 0
-19 -138 0
19 132 0
-19 -132 0
52 43 0
-52 -43 0
52 10 0
-52 -10 0
36 2 0
-36 -2 0
36 29 0
-36 -29 0
36 131 0
-36 -131 0
5 42 0
-5 -42 0
5 56 0
-5 -56 0
5 17 0
-5 -17 0
75 81 0
-75 -81 0
75 97 0
-75 -97 0
139 127 0
-139 -127 0
139 96 0
-139 -96 0
139 105 0
-139 -105 0
55 39 0
-55 -39 0
55 80 0
-55 -80 0
55 23 0
-55 -23 0
82 17 0
-82 -17 0
82 46 0
-82 -46 0
82 54 0
-82 -54 0
44 71 0
-44 -71 0
44 127 0
-44 -127 0
44 38 0
-44 -38 0
72 87 0
-72 -87 0
72 34 0
-72 -34 0
72 18 0
-72 -18 0
118 105 0
-118 -105 0
118 10 0
-118 -10 0
118 56 0
-118 -56 0
41 13 0
-41 -13 0
41 37 0
-41 -37 0
41 99 0
-41 -99 0
7 61 0
-7 -61 0
7 42 0
-7 -42 0
7 99 0
-7 -99 0
129 101 0
-129 -101 0
129 97 0
-129 -97 0
129 22 0
-129 -22 0
33 138 0
-33 -138 0
33 91 0
-33 -91 0
33 131 0
-33 -131 0
35 10 0
-35 -10 0
35 140 0
-35 -140 0
35 29 0
-35 -29 0
20 99 0
-20 -99 0
20 87 0
-20 -87 0
20 38 0
-20 -38 0
59 25 0
-59 -25 0
59 124 0
-59 -124 0
59 86 0
-59 -86 0
134 91 0
-134 -91 0
134 57 0
-134 -57 0
134 34 0
-134 -34 0
73 1 0
-73 -1 0
73 39 0
-73 -39 0
90 18 0
-90 -18 0
90 104 0
-90 -104 0
90 76 0
-90 -76 0
45 132 0
-45 -132 0
45 61 0
-45 -61 0
45 110 0
-45 -110 0
62 78 0
-62 -78 0
62 136 0
-62 -136 0
62 140 0
-62 -140 0
70 122 0
-70 -122 0
70 130 0
-70 -130 0
3 37 0
-3 -37 0
3 115 0
-3 -115 0
98 83 0
-98 -83 0
98 67 0
-98 -67 0
98 61 0
-98 -61 0
119 54 0
-119 -54 0
119 74 0
-119 -74 0
119 21 0
-119 -21 0
92 115 0
-92 -115 0
92 78 0
-92 -78 0
92 110 0
-92 -110 0
85 29 0
-85 -29 0
85 67 0
-85 -67 0
85 71 0
-85 -71 0
89 76 0
-89 -76 0
89 51 0
-89 -51 0
89 30 0
-89 -30 0
48 126 0
-48 -126 0
48 21 0
-48 -21 0
48 65 0
-48 -65 0
69 52 0
-69 -52 0
113 59 0
-113 -59 0
64 110 0
-64 -110 0
63 45 0
-63 -45 0
84 23 0
-84 -23 0
45 79 0
-45 -79 0
89 136 0
-89 -136 0
6 72 0
-6 -72 0
49 126 0
-49 -126 0
114 13 0
-114 -13 0
99 1 0
-99 -1 0
133 5 0
-133 -5 0
40 46 0
-40 -46 0
64 10 0
-64 -10 0
128 96 0
-128 -96 0
102 35 0
-102 -35 0
79 83 0
-79 -83 0
102 74 0
-102 -74 0
129 25 0
-129 -25 0
77 111 0
-77 -111 0
106 51 0
-106 -51 0
46 18 0
-46 -18 0
123 73 0
-123 -73 0
74 88 0
-74 -88 0
15 124 0
-15 -124 0
94 105 0
-94 -105 0
50 4 0
-50 -4 0
133 2 0
-133 -2 0
139 97 0
-139 -97 0
12 61 0
-12 -61 0
40 71 0
-40 -71 0
135 38 0
-135 -38 0
21 29 0
-21 -29 0
87 126 0
-87 -126 0
66 23 0
-66 -23 0
124 29 0
-124 -29 0
9 43 0
-9 -43 0
15 118 0
-15 -118 0
93 126 0
-93 -126 0
12 39 0
-12 -39 0
85 61 0
-85 -61 0
133 136 0
-133 -136 0
55 44 0
-55 -44 0
114 90 0
-114 -90 0
116 93 0
-116 -93 0
33 86 0
-33 -86 0
117 25 0
-117 -25 0
135 133 0
-135 -133 0
75 138 0
-75 -138 0
120 50 0
-120 -50 0
62 13 0
-62 -13 0
139 67 0
-139 -67 0
129 30 0
-129 -30 0
50 49 0
-50 -49 0
17 61 0
-17 -61 0
42 54 0
-42 -54 0
104 76 0
-104 -76 0
82 79 0
-82 -79 0
24 48 0
-24 -48 0
33 49 0
-33 -49 0
32 130 0
-32 -130 0
49 13 0
-49 -13 0
114 68 0
-114 -68 0
47 83 0
-47 -83 0
23 10 0
-23 -10 0
90 17 0
-90 -17 0
41 71 0
-41 -71 0
22 126 0
-22 -126 0
120 33 0
-120 -33 0
42 17 0
-42 -17 0
124 105 0
-124 -105 0
58 112 0
-58 -112 0
31 126 0
-31 -126 0
41 83 0
-41 -83 0
11 65 0
-11 -65 0
66 117 0
-66 -117 0
14 62 0
-14 -62 0
103 119 0
-103 -119 0
24 14 0
-24 -14 0
92 37 0
-92 -37 0
44 74 0
-44 -74 0
52 130 0
-52 -130 0
86 96 0
-86 -96 0
55 72 0
-55 -72 0
6 134 0
-6 -134 0
16 116 0
-16 -116 0
85 22 0
-85 -22 0
53 37 0
-53 -37 0
33 119 0
-33 -119 0
34 138 0
-34 -138 0
14 91 0
-14 -91 0
56 91 0
-56 -91 0
102 126 0
-102 -126 0
128 68 0
-128 -68 0
116 81 0
-116 -81 0
63 66 0
-63 -66 0
58 57 0
-58 -57 0
15 90 0
-15 -90 0
123 8 0
-123 -8 0
93 67 0
-93 -67 0
135 108 0
-135 -108 0
77 102 0
-77 -102 0
137 75 0
-137 -75 0
5 110 0
-5 -110 0
45 81 0
-45 -81 0
69 60 0
-69 -60 0
136 18 0
-136 -18 0
135 5 0
-135 -5 0
20 136 0
-20 -136 0
97 111 0
-97 -111 0
97 13 0
-97 -13 0
6 138 0
-6 -138 0
63 90 0
-63 -90 0
46 76 0
-46 -76 0
38 136 0
-38 -136 0
89 100 0
-89 -100 0
73 65 0
-73 -65 0
60 42 0
-60 -42 0
14 20 0
-14 -20 0
14 83 0
-14 -83 0
44 81 0
-44 -81 0
62 119 0
-62 -119 0
120 61 0
-120 -61 0
14 129 0
-14 -129 0
71 87 0
-71 -87 0
64 56 0
-64 -56 0
24 43 0
-24 -43 0
60 94 0
-60 -94 0
106 90 0
-106 -90 0
3 112 0
-3 -112 0
40 26 0
-40 -26 0
111 132 0
-111 -132 0
107 82 0
-107 -82 0
68 136 0
-68 -136 0
120 23 0
-120 -23 0
10 83 0
-10 -83 0
66 115 0
-66 -115 0
40 29 0
-40 -29 0
89 1 0
-89 -1 0
28 129 0
-28 -129 0
6 47 0
-6 -47 0
50 101 0
-50 -101 0
102 81 0
-102 -81 0
57 138 0
-57 -138 0
108 27 0
-108 -27 0
15 10 0
-15 -10 0
36 124 0
-36 -124 0
13 91 0
-13 -91 0
69 102 0
-69 -102 0
66 129 0
-66 -129 0
53 68 0
-53 -68 0
86 105 0
-86 -105 0
1 122 0
-1 -122 0
14 101 0
-14 -101 0
135 107 0
-135 -107 0
64 68 0
-64 -68 0
69 94 0
-69 -94 0
48 91 0
-48 -91 0
60 78 0
-60 -78 0
55 140 0
-55 -140 0
40 14 0
-40 -14 0
92 51 0
-92 -51 0
133 91 0
-133 -91 0
107 94 0
-107 -94 0
7 3 0
-7 -3 0
103 96 0
-103 -96 0
36 88 0
-36 -88 0
28 82 0
-28 -82 0
90 91 0
-90 -91 0
14 60 0
-14 -60 0
134 130 0
-134 -130 0
125 47 0
-125 -47 0
80 4 0
-80 -4 0
140 22 0
-140 -22 0
113 98 0
-113 -98 0
29 76 0
-29 -76 0
63 118 0
-63 -118 0
120 9 0
-120 -9 0
46 136 0
-46 -136 0
101 76 0
-101 -76 0
109 68 0
-109 -68 0
62 100 0
-62 -100 0
63 99 0
-63 -99 0
32 97 0
-32 -97 0
24 17 0
-24 -17 0
12 92 0
-12 -92 0
92 18 0
-92 -18 0
107 86 0
-107 -86 0
30 37 0
-30 -37 0
58 9 0
-58 -9 0
53 42 0
-53 -42 0
87 61 0
-87 -61 0
14 17 0
-14 -17 0
32 52 0
-32 -52 0
46 49 0
-46 -49 0
19 22 0
-19 -22 0
86 57 0
-86 -57 0
7 121 0
-7 -121 0
84 104 0
-84 -104 0
23 111 0
-23 -111 0
44 85 0
-44 -85 0
53 113 0
-53 -113 0
15 52 0
-15 -52 0
26 65 0
-26 -65 0
72 23 0
-72 -23 0
85 27 0
-85 -27 0
16 9 0
-16 -9 0
68 37 0
-68 -37 0
106 29 0
-106 -29 0
50 132 0
-50 -132 0
82 71 0
-82 -71 0
112 2 0
-112 -2 0
64 2 0
-64 -2 0
8 23 0
-8 -23 0
6 31 0
-6 -31 0
75 86 0
-75 -86 0
107 110 0
-107 -110 0
106 42 0
-106 -42 0
93 138 0
-93 -138 0
113 131 0
-113 -131 0
138 37 0
-138 -37 0
104 71 0
-104 -71 0
102 92 0
-102 -92 0
3 110 0
-3 -110 0
56 54 0
-56 -54 0
52 51 0
-52 -51 0
116 132 0
-116 -132 0
60 43 0
-60 -43 0
27 136 0
-27 -136 0
93 129 0
-93 -129 0
77 78 0
-77 -78 0
12 72 0
-12 -72 0
36 5 0
-36 -5 0
101 126 0
-101 -126 0
123 85 0
-123 -85 0
69 105 0
-69 -105 0
60 121 0
-60 -121 0
84 81 0
-84 -81 0
62 68 0
-62 -68 0
66 21 0
-66 -21 0
5 140 0
-5 -140 0
80 10 0
-80 -10 0
24 128 0
-24 -128 0
69 119 0
-69 -119 0
128 5 0
-128 -5 0
19 39 0
-19 -39 0
48 4 0
-48 -4 0
66 36 0
-66 -36 0
50 76 0
-50 -76 0
117 76 0
-117 -76 0
62 65 0
-62 -65 0
106 97 0
-106 -97 0
28 91 0
-28 -91 0
64 107 0
-64 -107 0
56 71 0
-56 -71 0
35 65 0
-35 -65 0
134 11 0
-134 -11 0
103 3 0
-103 -3 0
68 130 0
-68 -130 0
135 91 0
-135 -91 0
35 61 0
-35 -61 0
26 130 0
-26 -130 0
112 131 0
-112 -131 0
7 57 0
-7 -57 0
27 132 0
-27 -132 0
30 132 0
-30 -132 0
57 42 0
-57 -42 0
70 127 0
-70 -127 0
128 88 0
-128 -88 0
123 137 0
-123 -137 0
114 30 0
-114 -30 0
47 36 0
-47 -36 0
114 102 0
-114 -102 0
11 67 0
-11 -67 0
102 71 0
-102 -71 0
42 1 0
-42 -1 0
127 71 0
-127 -71 0
47 59 0
-47 -59 0
53 111 0
-53 -111 0
40 138 0
-40 -138 0
89 112 0
-89 -112 0
60 67 0
-60 -67 0
20 59 0
-20 -59 0
47 44 0
-47 -44 0
85 111 0
-85 -111 0
56 23 0
-56 -23 0
44 96 0
-44 -96 0
27 68 0
-27 -68 0
66 20 0
-66 -20 0
127 83 0
-127 -83 0
116 36 0
-116 -36 0
3 104 0
-3 -104 0
65 67 0
-65 -67 0
128 135 0
-128 -135 0
36 85 0
-36 -85 0
65 124 0
-65 -124 0
53 134 0
-53 -134 0
134 45 0
-134 -45 0
72 105 0
-72 -105 0
16 59 0
-16 -59 0
87 18 0
-87 -18 0
124 51 0
-124 -51 0
134 89 0
-134 -89 0
128 38 0
-128 -38 0
28 34 0
-28 -34 0
103 111 0
-103 -111 0
125 106 0
-125 -106 0
24 53 0
-24 -53 0
116 79 0
-116 -79 0
109 46 0
-109 -46 0
15 65 0
-15 -65 0
57 81 0
-57 -81 0
77 33 0
-77 -33 0
80 88 0
-80 -88 0
6 112 0
-6 -112 0
68 49 0
-68 -49 0
110 4 0
-110 -4 0
53 129 0
-53 -129 0
20 80 0
-20 -80 0
110 99 0
-110 -99 0
92 136 0
-92 -136 0
134 97 0
-134 -97 0
68 43 0
-68 -43 0
85 25 0
-85 -25 0
53 21 0
-53 -21 0
139 65 0
-139 -65 0
60 65 0
-60 -65 0
128 70 0
-128 -70 0
31 42 0
-31 -42 0
103 102 0
-103 -102 0
14 49 0
-14 -49 0
7 62 0
-7 -62 0
133 132 0
-133 -132 0
28 78 0
-28 -78 0
9 137 0
-9 -137 0
58 21 0
-58 -21 0
23 68 0
-23 -68 0
72 41 0
-72 -41 0
84 46 0
-84 -46 0
15 5 0
-15 -5 0
107 52 0
-107 -52 0
5 70 0
-5 -70 0
131 71 0
-131 -71 0
49 39 0
-49 -39 0
41 86 0
-41 -86 0
64 105 0
-64 -105 0
80 37 0
-80 -37 0
60 86 0
-60 -86 0
123 3 0
-123 -3 0
77 83 0
-77 -83 0
95 100 0
-95 -100 0
85 87 0
-85 -87 0
31 83 0
-31 -83 0
103 83 0
-103 -83 0
108 115 0
-108 -115 0
124 17 0
-124 -17 0
77 91 0
-77 -91 0
109 11 0
-109 -11 0
72 129 0
-72 -129 0
42 61 0
-42 -61 0
38 131 0
-38 -131 0
32 65 0
-32 -65 0
125 43 0
-125 -43 0
99 126 0
-99 -126 0
38 86 0
-38 -86 0
16 37 0
-16 -37 0
19 61 0
-19 -61 0
128 122 0
-128 -122 0
65 1 0
-65 -1 0
8 18 0
-8 -18 0
137 98 0
-137 -98 0
32 17 0
-32 -17 0
40 74 0
-40 -74 0
134 43 0
-134 -43 0
87 10 0
-87 -10 0
65 99 0
-65 -99 0
13 25 0
-13 -25 0
79 23 0
-79 -23 0
40 129 0
-40 -129 0
51 42 0
-51 -42 0
61 99 0
-61 -99 0
42 37 0
-42 -37 0
4 43 0
-4 -43 0
70 68 0
-70 -68 0
106 67 0
-106 -67 0
18 76 0
-18 -76 0
32 30 0
-32 -30 0
81 18 0
-81 -18 0
7 59 0
-7 -59 0
38 65 0
-38 -65 0
89 38 0
-89 -38 0
48 51 0
-48 -51 0
135 112 0
-135 -112 0
99 132 0
-99 -132 0
52 30 0
-52 -30 0
139 55 0
-139 -55 0
74 126 0
-74 -126 0
48 78 0
-48 -78 0
53 114 0
-53 -114 0
31 131 0
-31 -131 0
4 17 0
-4 -17 0
77 126 0
-77 -126 0
66 73 0
-66 -73 0
89 110 0
-89 -110 0
114 80 0
-114 -80 0
47 8 0
-47 -8 0
63 59 0
-63 -59 0
47 48 0
-47 -48 0
48 105 0
-48 -105 0
102 4 0
-102 -4 0
4 138 0
-4 -138 0
72 124 0
-72 -124 0
31 51 0
-31 -51 0
64 94 0
-64 -94 0
12 121 0
-12 -121 0
92 30 0
-92 -30 0
19 38 0
-19 -38 0
118 38 0
-118 -38 0
21 105 0
-21 -105 0
70 17 0
-70 -17 0
38 122 0
-38 -122 0
2 13 0
-2 -13 0
70 92 0
-70 -92 0
34 71 0
-34 -71 0
103 86 0
-103 -86 0
6 8 0
-6 -8 0
42 83 0
-42 -83 0
70 78 0
-70 -78 0
95 38 0
-95 -38 0
23 71 0
-23 -71 0
9 77 0
-9 -77 0
60 80 0
-60 -80 0
64 79 0
-64 -79 0
92 25 0
-92 -25 0
35 131 0
-35 -131 0
95 89 0
-95 -89 0
107 8 0
-107 -8 0
84 129 0
-84 -129 0
66 5 0
-66 -5 0
74 29 0
-74 -29 0
63 23 0
-63 -23 0
